solution status: optimal solution found
objective value:                                   16
thing.thing.chamber[2].thingy.v1_y                   15 	(obj:0)
thing.thing.chamber[2].thingy.v1_z                   18 	(obj:0)
thing.thing.chamber[0].thingy.v9_y                   18 	(obj:0)
thing.thing.chamber[0].thingy.v9_z                   18 	(obj:0)
thing.wash_flush_hole_y                            17 	(obj:0)
thing.wash_flush_hole_z                            15 	(obj:0)
thing.thing.chamber[1].thingy.v4_y                   14 	(obj:0)
thing.thing.chamber[1].thingy.v4_z                   19 	(obj:0)
thing.thing.chamber[1].thingy.v9_y                   16 	(obj:0)
thing.thing.chamber[1].thingy.v9_z                   20 	(obj:0)
thing.lysis_flush_hole_y                           14 	(obj:0)
thing.lysis_flush_hole_z                           15 	(obj:0)
thing.elute_ctrl_hole_y                            11 	(obj:0)
thing.elute_ctrl_hole_z                            18 	(obj:0)
thing.thing.chamber[1].thingy.v6_y                   13 	(obj:0)
thing.thing.chamber[1].thingy.v6_z                   18 	(obj:0)
thing.elute_flush_hole_y                           11 	(obj:0)
thing.elute_flush_hole_z                           17 	(obj:0)
thing.lysis_ctrl_hole_y                            13 	(obj:0)
thing.lysis_ctrl_hole_z                            15 	(obj:0)
thing.bead_ctrl_hole_y                             14 	(obj:0)
thing.bead_ctrl_hole_z                             16 	(obj:0)
thing.thing.chamber[1].thingy.v1_y                   15 	(obj:0)
thing.thing.chamber[1].thingy.v1_z                   19 	(obj:0)
thing.thing.chamber[1].thingy.v7_y                   14 	(obj:0)
thing.thing.chamber[1].thingy.v7_z                   18 	(obj:0)
thing.thing.chamber[0].thingy.v10_y                   17 	(obj:0)
thing.thing.chamber[0].thingy.v10_z                   20 	(obj:0)
thing.thing.chamber[1].thingy.v8_y                   18 	(obj:0)
thing.thing.chamber[1].thingy.v8_z                   20 	(obj:0)
thing.thing.chamber[0].thingy.v7_y                   13 	(obj:0)
thing.thing.chamber[0].thingy.v7_z                   17 	(obj:0)
thing.thing.chamber[0].thingy.r2c_y                   16 	(obj:0)
thing.thing.chamber[0].thingy.r2c_z                   15 	(obj:0)
thing.horiz_ctrl_hole_y                            12 	(obj:0)
thing.horiz_ctrl_hole_z                            15 	(obj:0)
thing.thing.chamber[0].thingy.v2_y                   14 	(obj:0)
thing.thing.chamber[0].thingy.v2_z                   17 	(obj:0)
thing.thing.chamber[0].thingy.v1_y                   15 	(obj:0)
thing.thing.chamber[0].thingy.v1_z                   17 	(obj:0)
thing.thing.chamber[0].thingy.v3_y                   16 	(obj:0)
thing.thing.chamber[0].thingy.v3_z                   19 	(obj:0)
thing.thing.chamber[1].thingy.v5_y                   12 	(obj:0)
thing.thing.chamber[1].thingy.v5_z                   16 	(obj:0)
thing.wash_ctrl_hole_y                             15 	(obj:0)
thing.wash_ctrl_hole_z                             15 	(obj:0)
thing.thing.chamber[0].thingy.r3c_y                   12 	(obj:0)
thing.thing.chamber[0].thingy.r3c_z                   17 	(obj:0)
thing.thing.chamber[0].thingy.r4c_y                   16 	(obj:0)
thing.thing.chamber[0].thingy.r4c_z                   18 	(obj:0)
thing.thing.chamber[0].thingy.v5_y                   12 	(obj:0)
thing.thing.chamber[0].thingy.v5_z                   18 	(obj:0)
x54                                                 1 	(obj:1)
x66                                                 1 	(obj:1)
x76                                                 2 	(obj:1)
x85                                                 1 	(obj:1)
x105                                                2 	(obj:1)
x115                                                2 	(obj:1)
x117                                                1 	(obj:1)
x127                                                1 	(obj:1)
x128                                                1 	(obj:1)
x134                                                1 	(obj:1)
x135                                                1 	(obj:1)
x136                                                2 	(obj:1)
